************************************************************************
file with basedata            : j60_56.bas
initial value random generator: 909781474
************************************************************************
projects                      :  1
jobs (incl. supersource/sink ):  62
horizon                       :  351
RESOURCES
  - renewable                 :  4   R
  - nonrenewable              :  0   N
  - doubly constrained        :  0   D
************************************************************************
PROJECT INFORMATION:
pronr.  #jobs rel.date duedate tardcost  MPM-Time
    1     60      0       80       47       80
************************************************************************
PRECEDENCE RELATIONS:
jobnr.    #modes  #successors   successors
   1        1          3           2   3   4
   2        1          3           5  10  16
   3        1          3           6   8   9
   4        1          1           7
   5        1          3          23  24  46
   6        1          3          11  19  20
   7        1          3          14  42  51
   8        1          3          13  21  22
   9        1          3          26  43  44
  10        1          3          15  25  26
  11        1          3          12  34  45
  12        1          3          16  35  39
  13        1          3          17  26  31
  14        1          2          40  53
  15        1          3          29  45  53
  16        1          3          18  23  41
  17        1          2          27  32
  18        1          3          29  48  59
  19        1          2          23  27
  20        1          3          21  24  38
  21        1          3          25  29  30
  22        1          3          33  35  37
  23        1          2          43  61
  24        1          3          33  40  49
  25        1          3          27  34  44
  26        1          3          28  38  59
  27        1          3          28  37  49
  28        1          2          36  42
  29        1          1          51
  30        1          3          31  55  57
  31        1          3          37  39  58
  32        1          3          35  36  46
  33        1          3          36  39  42
  34        1          3          40  47  55
  35        1          1          49
  36        1          1          45
  37        1          1          56
  38        1          3          46  47  54
  39        1          2          41  51
  40        1          1          50
  41        1          2          43  44
  42        1          2          48  54
  43        1          1          48
  44        1          1          60
  45        1          2          47  50
  46        1          2          50  52
  47        1          2          52  57
  48        1          1          60
  49        1          3          52  53  55
  50        1          1          60
  51        1          1          61
  52        1          1          58
  53        1          2          54  56
  54        1          1          57
  55        1          1          56
  56        1          1          59
  57        1          1          58
  58        1          1          61
  59        1          1          62
  60        1          1          62
  61        1          1          62
  62        1          0        
************************************************************************
REQUESTS/DURATIONS:
jobnr. mode duration  R 1  R 2  R 3  R 4
------------------------------------------------------------------------
  1      1     0       0    0    0    0
  2      1     8       0    1    7    0
  3      1     7       0    0    0    5
  4      1     6       3    0    0    0
  5      1     7       1    5    0    5
  6      1     7       0    0    6    0
  7      1     2       0    0    5    0
  8      1     4       0    4    7    6
  9      1     6       0    0    0    1
 10      1     7       9    3    3   10
 11      1    10       0    2    0    0
 12      1     4       6    0    0    0
 13      1     6       0    0    7    0
 14      1     1       2    0    6    2
 15      1     3       0    0    0    5
 16      1     1       3   10    0    1
 17      1     9       0    0    5    0
 18      1     4       6    0    0    9
 19      1     7       0    3    0    9
 20      1    10       0   10    7    0
 21      1     8       0   10    9    7
 22      1     5       0    4    0    6
 23      1    10       8    5    0    8
 24      1     4       0    5    5    0
 25      1     4       6    1    2    0
 26      1     3       0    1    0    0
 27      1     6       0    1    0    0
 28      1     2       0    0    3    1
 29      1     9       8    0    6    0
 30      1     5       0    9    6   10
 31      1     6       4    1   10    8
 32      1     9       0    0    0    4
 33      1     4       0    0    7    0
 34      1     7       0    0    0    6
 35      1     4       0    0    0   10
 36      1     3       0    9    1    3
 37      1     6       3    0    0    0
 38      1     9       0    1    7    0
 39      1     3       0    0    0    7
 40      1     8       0    0    8    2
 41      1     7       6    3    0    9
 42      1     3       6   10    3    0
 43      1     3       0    5    0    7
 44      1     1       8    9    0    0
 45      1     4       7   10    2    5
 46      1     8       0    0    0    2
 47      1    10       9    4    0    0
 48      1     7       7    7    0    5
 49      1     3       0    0    1    2
 50      1     4       5    2    0    0
 51      1     5       0    3    0    1
 52      1     4       9    3    0    0
 53      1     5       7    0    0    0
 54      1    10       8    3    0    0
 55      1     8       4    9    6    0
 56      1     9       8    0    2    0
 57      1     8       9    0    0    0
 58      1     6       1    2    3    7
 59      1     9       3    1    0    9
 60      1     8       8    9    0    0
 61      1     5       0    6    6    0
 62      1     0       0    0    0    0
************************************************************************
RESOURCEAVAILABILITIES:
  R 1  R 2  R 3  R 4
   38   34   26   36
************************************************************************
